set Nodes := 1 2 3 4 5 6 ;

set Arcs :=
1 2
1 3
2 3
2 4
2 5
3 5
4 6
5 4
5 6
;

param : FlowCost :=
1 2 2
1 3 3
2 3 2
2 4 2
2 5 5
3 5 5
4 6 3
5 4 2
5 6 7
;

param : FlowUB :=
1 2 3
1 3 4
2 3 15
2 4 5
2 5 8
3 5 4
4 6 6
5 4 1
5 6 8
;

param Supply :=
1 3
2 0
3 0
4 -1
5 -1
6 -1
;